Code 534
Dimension, Median
   128       16     
 Facility, Client, Transportation Cost
     1        1           3
     1        2           1
     1        3           4
     1        5           3
     1        9           0
     1       17           2
     1       33           3
     1       65           0
     2        1           0
     2        2           0
     2        4           0
     2        6           1
     2       10           3
     2       18           4
     2       34           2
     2       66           4
     3        1           0
     3        3           0
     3        4           3
     3        7           1
     3       11           0
     3       19           0
     3       35           0
     3       67           2
     4        2           4
     4        3           4
     4        4           4
     4        8           2
     4       12           3
     4       20           2
     4       36           4
     4       68           3
     5        1           2
     5        5           4
     5        6           1
     5        7           0
     5       13           2
     5       21           2
     5       37           4
     5       69           2
     6        2           2
     6        5           0
     6        6           3
     6        8           0
     6       14           2
     6       22           1
     6       38           3
     6       70           3
     7        3           4
     7        5           1
     7        7           4
     7        8           0
     7       15           1
     7       23           4
     7       39           4
     7       71           1
     8        4           0
     8        6           2
     8        7           0
     8        8           3
     8       16           3
     8       24           0
     8       40           2
     8       72           3
     9        1           4
     9        9           1
     9       10           2
     9       11           2
     9       13           1
     9       25           0
     9       41           1
     9       73           0
    10        2           2
    10        9           0
    10       10           3
    10       12           1
    10       14           4
    10       26           1
    10       42           3
    10       74           0
    11        3           3
    11        9           0
    11       11           0
    11       12           0
    11       15           4
    11       27           4
    11       43           4
    11       75           2
    12        4           4
    12       10           3
    12       11           2
    12       12           4
    12       16           0
    12       28           4
    12       44           3
    12       76           0
    13        5           2
    13        9           3
    13       13           4
    13       14           1
    13       15           2
    13       29           4
    13       45           0
    13       77           3
    14        6           3
    14       10           1
    14       13           3
    14       14           1
    14       16           0
    14       30           1
    14       46           4
    14       78           1
    15        7           4
    15       11           0
    15       13           0
    15       15           1
    15       16           0
    15       31           1
    15       47           4
    15       79           1
    16        8           4
    16       12           4
    16       14           3
    16       15           2
    16       16           1
    16       32           4
    16       48           1
    16       80           1
    17        1           3
    17       17           0
    17       18           1
    17       19           2
    17       21           0
    17       25           3
    17       49           2
    17       81           2
    18        2           1
    18       17           1
    18       18           2
    18       20           2
    18       22           4
    18       26           2
    18       50           4
    18       82           0
    19        3           4
    19       17           4
    19       19           3
    19       20           4
    19       23           2
    19       27           3
    19       51           2
    19       83           2
    20        4           4
    20       18           4
    20       19           3
    20       20           1
    20       24           1
    20       28           1
    20       52           0
    20       84           4
    21        5           4
    21       17           0
    21       21           0
    21       22           4
    21       23           1
    21       29           0
    21       53           4
    21       85           3
    22        6           2
    22       18           2
    22       21           2
    22       22           4
    22       24           3
    22       30           1
    22       54           1
    22       86           2
    23        7           2
    23       19           0
    23       21           2
    23       23           0
    23       24           4
    23       31           4
    23       55           2
    23       87           4
    24        8           3
    24       20           4
    24       22           4
    24       23           4
    24       24           1
    24       32           3
    24       56           3
    24       88           0
    25        9           2
    25       17           3
    25       25           2
    25       26           0
    25       27           2
    25       29           0
    25       57           0
    25       89           4
    26       10           4
    26       18           4
    26       25           1
    26       26           0
    26       28           4
    26       30           4
    26       58           1
    26       90           4
    27       11           3
    27       19           0
    27       25           4
    27       27           1
    27       28           2
    27       31           3
    27       59           2
    27       91           3
    28       12           0
    28       20           4
    28       26           2
    28       27           2
    28       28           3
    28       32           4
    28       60           0
    28       92           3
    29       13           3
    29       21           4
    29       25           3
    29       29           3
    29       30           0
    29       31           1
    29       61           4
    29       93           2
    30       14           2
    30       22           4
    30       26           0
    30       29           1
    30       30           2
    30       32           4
    30       62           0
    30       94           0
    31       15           3
    31       23           1
    31       27           4
    31       29           2
    31       31           0
    31       32           4
    31       63           3
    31       95           3
    32       16           4
    32       24           4
    32       28           3
    32       30           0
    32       31           4
    32       32           1
    32       64           2
    32       96           0
    33        1           3
    33       33           0
    33       34           2
    33       35           4
    33       37           4
    33       41           3
    33       49           1
    33       97           0
    34        2           3
    34       33           4
    34       34           0
    34       36           3
    34       38           0
    34       42           1
    34       50           0
    34       98           2
    35        3           2
    35       33           0
    35       35           4
    35       36           0
    35       39           2
    35       43           0
    35       51           4
    35       99           1
    36        4           2
    36       34           2
    36       35           2
    36       36           4
    36       40           3
    36       44           4
    36       52           2
    36      100           0
    37        5           4
    37       33           3
    37       37           3
    37       38           4
    37       39           1
    37       45           4
    37       53           1
    37      101           2
    38        6           0
    38       34           2
    38       37           3
    38       38           2
    38       40           0
    38       46           4
    38       54           0
    38      102           2
    39        7           0
    39       35           1
    39       37           4
    39       39           1
    39       40           4
    39       47           2
    39       55           0
    39      103           4
    40        8           3
    40       36           0
    40       38           2
    40       39           0
    40       40           0
    40       48           4
    40       56           3
    40      104           2
    41        9           1
    41       33           4
    41       41           4
    41       42           2
    41       43           4
    41       45           4
    41       57           1
    41      105           0
    42       10           2
    42       34           0
    42       41           1
    42       42           0
    42       44           1
    42       46           4
    42       58           2
    42      106           1
    43       11           0
    43       35           4
    43       41           1
    43       43           3
    43       44           1
    43       47           3
    43       59           3
    43      107           3
    44       12           4
    44       36           4
    44       42           2
    44       43           2
    44       44           1
    44       48           1
    44       60           4
    44      108           4
    45       13           4
    45       37           2
    45       41           1
    45       45           0
    45       46           3
    45       47           2
    45       61           3
    45      109           2
    46       14           1
    46       38           2
    46       42           3
    46       45           0
    46       46           3
    46       48           4
    46       62           3
    46      110           4
    47       15           1
    47       39           2
    47       43           3
    47       45           4
    47       47           3
    47       48           3
    47       63           3
    47      111           1
    48       16           3
    48       40           2
    48       44           0
    48       46           1
    48       47           2
    48       48           3
    48       64           3
    48      112           4
    49       17           0
    49       33           2
    49       49           1
    49       50           2
    49       51           3
    49       53           3
    49       57           3
    49      113           0
    50       18           4
    50       34           2
    50       49           4
    50       50           1
    50       52           3
    50       54           0
    50       58           1
    50      114           3
    51       19           4
    51       35           0
    51       49           3
    51       51           4
    51       52           1
    51       55           1
    51       59           1
    51      115           1
    52       20           3
    52       36           4
    52       50           1
    52       51           4
    52       52           2
    52       56           3
    52       60           1
    52      116           0
    53       21           3
    53       37           4
    53       49           4
    53       53           1
    53       54           0
    53       55           0
    53       61           4
    53      117           1
    54       22           4
    54       38           0
    54       50           3
    54       53           2
    54       54           2
    54       56           0
    54       62           0
    54      118           1
    55       23           1
    55       39           4
    55       51           1
    55       53           2
    55       55           2
    55       56           2
    55       63           0
    55      119           4
    56       24           0
    56       40           2
    56       52           1
    56       54           4
    56       55           3
    56       56           0
    56       64           1
    56      120           4
    57       25           2
    57       41           0
    57       49           0
    57       57           4
    57       58           3
    57       59           0
    57       61           0
    57      121           4
    58       26           2
    58       42           0
    58       50           2
    58       57           3
    58       58           3
    58       60           2
    58       62           2
    58      122           2
    59       27           2
    59       43           4
    59       51           3
    59       57           4
    59       59           4
    59       60           0
    59       63           1
    59      123           3
    60       28           1
    60       44           2
    60       52           1
    60       58           1
    60       59           2
    60       60           2
    60       64           1
    60      124           2
    61       29           4
    61       45           0
    61       53           1
    61       57           3
    61       61           4
    61       62           0
    61       63           2
    61      125           1
    62       30           1
    62       46           4
    62       54           3
    62       58           0
    62       61           2
    62       62           1
    62       64           4
    62      126           1
    63       31           3
    63       47           2
    63       55           3
    63       59           0
    63       61           0
    63       63           0
    63       64           3
    63      127           4
    64       32           2
    64       48           3
    64       56           3
    64       60           2
    64       62           3
    64       63           4
    64       64           2
    64      128           4
    65        1           1
    65       65           3
    65       66           1
    65       67           1
    65       69           4
    65       73           1
    65       81           4
    65       97           4
    66        2           2
    66       65           0
    66       66           1
    66       68           3
    66       70           2
    66       74           3
    66       82           2
    66       98           0
    67        3           4
    67       65           0
    67       67           0
    67       68           4
    67       71           2
    67       75           1
    67       83           3
    67       99           2
    68        4           2
    68       66           1
    68       67           1
    68       68           3
    68       72           0
    68       76           4
    68       84           4
    68      100           1
    69        5           2
    69       65           0
    69       69           2
    69       70           1
    69       71           3
    69       77           3
    69       85           3
    69      101           1
    70        6           1
    70       66           2
    70       69           2
    70       70           1
    70       72           0
    70       78           2
    70       86           4
    70      102           2
    71        7           1
    71       67           3
    71       69           1
    71       71           1
    71       72           0
    71       79           4
    71       87           0
    71      103           3
    72        8           4
    72       68           0
    72       70           1
    72       71           1
    72       72           3
    72       80           1
    72       88           1
    72      104           3
    73        9           3
    73       65           4
    73       73           4
    73       74           3
    73       75           2
    73       77           0
    73       89           0
    73      105           2
    74       10           3
    74       66           2
    74       73           0
    74       74           1
    74       76           4
    74       78           4
    74       90           2
    74      106           2
    75       11           3
    75       67           2
    75       73           3
    75       75           2
    75       76           1
    75       79           3
    75       91           2
    75      107           1
    76       12           0
    76       68           0
    76       74           1
    76       75           1
    76       76           4
    76       80           4
    76       92           1
    76      108           3
    77       13           2
    77       69           4
    77       73           3
    77       77           1
    77       78           4
    77       79           2
    77       93           1
    77      109           3
    78       14           1
    78       70           2
    78       74           4
    78       77           2
    78       78           0
    78       80           4
    78       94           0
    78      110           4
    79       15           2
    79       71           0
    79       75           2
    79       77           4
    79       79           3
    79       80           3
    79       95           0
    79      111           0
    80       16           2
    80       72           4
    80       76           0
    80       78           0
    80       79           1
    80       80           2
    80       96           0
    80      112           0
    81       17           1
    81       65           0
    81       81           3
    81       82           2
    81       83           4
    81       85           0
    81       89           2
    81      113           4
    82       18           4
    82       66           4
    82       81           0
    82       82           2
    82       84           4
    82       86           2
    82       90           1
    82      114           1
    83       19           4
    83       67           3
    83       81           2
    83       83           3
    83       84           1
    83       87           0
    83       91           1
    83      115           4
    84       20           3
    84       68           2
    84       82           3
    84       83           4
    84       84           1
    84       88           4
    84       92           2
    84      116           2
    85       21           4
    85       69           4
    85       81           2
    85       85           0
    85       86           4
    85       87           2
    85       93           2
    85      117           4
    86       22           3
    86       70           3
    86       82           1
    86       85           2
    86       86           1
    86       88           0
    86       94           0
    86      118           2
    87       23           3
    87       71           3
    87       83           4
    87       85           2
    87       87           0
    87       88           3
    87       95           1
    87      119           0
    88       24           0
    88       72           0
    88       84           4
    88       86           2
    88       87           4
    88       88           4
    88       96           2
    88      120           3
    89       25           4
    89       73           2
    89       81           3
    89       89           0
    89       90           1
    89       91           1
    89       93           3
    89      121           2
    90       26           2
    90       74           1
    90       82           1
    90       89           2
    90       90           2
    90       92           0
    90       94           4
    90      122           2
    91       27           3
    91       75           4
    91       83           1
    91       89           1
    91       91           0
    91       92           2
    91       95           1
    91      123           1
    92       28           3
    92       76           3
    92       84           0
    92       90           1
    92       91           1
    92       92           2
    92       96           2
    92      124           2
    93       29           0
    93       77           1
    93       85           2
    93       89           1
    93       93           2
    93       94           0
    93       95           3
    93      125           2
    94       30           3
    94       78           4
    94       86           2
    94       90           4
    94       93           4
    94       94           2
    94       96           0
    94      126           0
    95       31           2
    95       79           1
    95       87           0
    95       91           3
    95       93           4
    95       95           4
    95       96           2
    95      127           4
    96       32           1
    96       80           4
    96       88           3
    96       92           1
    96       94           3
    96       95           2
    96       96           2
    96      128           3
    97       33           2
    97       65           0
    97       97           0
    97       98           0
    97       99           0
    97      101           1
    97      105           0
    97      113           1
    98       34           3
    98       66           2
    98       97           2
    98       98           4
    98      100           0
    98      102           2
    98      106           3
    98      114           0
    99       35           0
    99       67           0
    99       97           2
    99       99           4
    99      100           1
    99      103           2
    99      107           3
    99      115           0
   100       36           3
   100       68           3
   100       98           1
   100       99           2
   100      100           3
   100      104           3
   100      108           0
   100      116           0
   101       37           4
   101       69           1
   101       97           2
   101      101           4
   101      102           3
   101      103           3
   101      109           3
   101      117           1
   102       38           4
   102       70           0
   102       98           4
   102      101           1
   102      102           0
   102      104           0
   102      110           1
   102      118           4
   103       39           4
   103       71           3
   103       99           4
   103      101           4
   103      103           4
   103      104           4
   103      111           3
   103      119           4
   104       40           4
   104       72           3
   104      100           2
   104      102           0
   104      103           4
   104      104           0
   104      112           1
   104      120           4
   105       41           2
   105       73           2
   105       97           3
   105      105           4
   105      106           0
   105      107           2
   105      109           2
   105      121           0
   106       42           2
   106       74           3
   106       98           0
   106      105           2
   106      106           4
   106      108           4
   106      110           3
   106      122           1
   107       43           0
   107       75           4
   107       99           0
   107      105           4
   107      107           4
   107      108           3
   107      111           2
   107      123           3
   108       44           4
   108       76           1
   108      100           1
   108      106           0
   108      107           1
   108      108           3
   108      112           4
   108      124           0
   109       45           4
   109       77           3
   109      101           0
   109      105           4
   109      109           3
   109      110           3
   109      111           0
   109      125           3
   110       46           4
   110       78           0
   110      102           3
   110      106           3
   110      109           3
   110      110           2
   110      112           3
   110      126           1
   111       47           2
   111       79           4
   111      103           0
   111      107           2
   111      109           1
   111      111           2
   111      112           4
   111      127           0
   112       48           0
   112       80           4
   112      104           2
   112      108           0
   112      110           4
   112      111           1
   112      112           1
   112      128           2
   113       49           1
   113       81           4
   113       97           1
   113      113           3
   113      114           4
   113      115           3
   113      117           4
   113      121           1
   114       50           2
   114       82           4
   114       98           2
   114      113           2
   114      114           0
   114      116           2
   114      118           4
   114      122           4
   115       51           0
   115       83           4
   115       99           1
   115      113           1
   115      115           4
   115      116           4
   115      119           0
   115      123           4
   116       52           1
   116       84           0
   116      100           2
   116      114           2
   116      115           0
   116      116           3
   116      120           0
   116      124           3
   117       53           4
   117       85           4
   117      101           2
   117      113           4
   117      117           4
   117      118           1
   117      119           3
   117      125           4
   118       54           0
   118       86           1
   118      102           3
   118      114           1
   118      117           3
   118      118           4
   118      120           3
   118      126           1
   119       55           1
   119       87           1
   119      103           1
   119      115           4
   119      117           4
   119      119           2
   119      120           4
   119      127           0
   120       56           1
   120       88           3
   120      104           3
   120      116           0
   120      118           1
   120      119           1
   120      120           4
   120      128           2
   121       57           4
   121       89           4
   121      105           0
   121      113           3
   121      121           4
   121      122           4
   121      123           3
   121      125           2
   122       58           1
   122       90           3
   122      106           3
   122      114           4
   122      121           1
   122      122           0
   122      124           1
   122      126           2
   123       59           3
   123       91           1
   123      107           1
   123      115           0
   123      121           3
   123      123           1
   123      124           4
   123      127           4
   124       60           3
   124       92           1
   124      108           2
   124      116           3
   124      122           2
   124      123           3
   124      124           3
   124      128           1
   125       61           2
   125       93           2
   125      109           3
   125      117           1
   125      121           1
   125      125           2
   125      126           1
   125      127           3
   126       62           3
   126       94           1
   126      110           2
   126      118           1
   126      122           0
   126      125           4
   126      126           2
   126      128           2
   127       63           0
   127       95           3
   127      111           3
   127      119           4
   127      123           0
   127      125           2
   127      127           1
   127      128           1
   128       64           4
   128       96           4
   128      112           3
   128      120           1
   128      124           1
   128      126           4
   128      127           1
   128      128           3
